NAME : 10_3_3_1_(39).dat
COMMENT : Henke, Speranza, Wäscher, 2015
TYPE : MCVRP
DIMENSION : 11
EDGE_WEIGHT_TYPE : DISTANCE_MATRIX
CAPACITY : 1000
VEHICLES : 2
PRODUCT TYPES : 3
COMPARTMENTS : 3
NODE_COORD_SECTION
1 50 50
2 58.28 19.85
3 46.23 13.11
4 66.26 82.92
5 66.84 67.27
6 28.46 21.3
7 13.54 3.62
8 87.4 53.23
9 90.32 91.6
10 26.55 18.28
11 95.24 56.74
DEMAND_SECTION
1 0 0 0
2 0 117 0
3 79 0 0
4 268 0 0
5 138 0 0
6 0 47 0
7 0 78 0
8 35 0 0
9 141 0 0
10 0 0 265
11 0 155 0
DEPOT_SECTION
1
EOF